32
0 0
4 13
38
21
4 0
7 28
39
21
7 0
14 14
36
19
14 0
17 29
37
20
17 0
26 7
35
19
17 7
30 15
33
18
0 13
3 40
34
18
7 14
13 23
32
18
17 15
23 24
31
17
23 15
27 46
28
16
7 23
14 37
29
16
3 37
15 44
30
16
27 15
31 39
26
15
15 29
22 34
27
15
15 34
21 47
24
13
0 44
8 59
23
12
8 47
21 53
22
11
27 39
31 59
25
14
8 53
17 60
21
11
21 46
27 60
20
10
0 59
6 71
17
9
6 60
17 66
18
9
17 53
19 74
19
9
19 60
27 74
15
8
27 59
30 80
16
8
6 66
13 74
14
7
13 66
16 98
11
6
0 71
5 82
13
6
5 74
10 85
12
6
16 74
22 85
8
5
22 74
26 95
10
5
0 85
13 90
9
5
0 90
8 96
7
4
26 80
29 108
5
3
16 85
22 94
6
3
29 80
32 109
4
2
8 90
11 113
2
2
16 94
22 105
3
2
0 96
8 111
0
1
11 98
16 109
1
1
